c clasp version 2.1.1
c Reading from pb_200_06.cnf
c Solving...
s UNKNOWN

c TIME LIMIT    : 1
c Models        : 0+    
c Time          : 18000.000s (Solving: 17999.28s 1st Model: 0.00s Unsat: 0.00s)
c CPU Time      : 17971.350s
c Choices       : 121521851
c Conflicts     : 66303005
c Restarts      : 48306  (Average: 1372.56 Last: 66301086)

c Variables     : 198080 (Eliminated: 61226 Frozen:    0)
c Constraints   : 218663 (Binary: 65.4% Ternary: 33.3% Other:  1.4%)
c Lemmas        : 66303005 (Binary:  0.0% Ternary:  0.0% Other: 99.9%)
c   Conflict    : 66303005 (Average Length: 46.4) 
c   Loop        : 0      (Average Length: 0.0) 
c   Other       : 0      (Average Length: 0.0)
c   Deleted     : 66106107
